p cnf 20 20
5 19 -8 0
-16 -20 13 0
5 -19 10 0
10 3 6 0
-2 12 7 0
-5 10 -14 0
-8 17 13 0
-15 -14 2 0
-20 7 2 0
-7 9 4 0
-1 -18 -5 0
-1 4 12 0
15 6 16 0
-11 1 -18 0
2 4 -17 0
-11 5 18 0
-11 1 -5 0
-17 -7 11 0
-12 4 -3 0
13 2 16 0
